Cubic BN
3.57
0.00000000 0.50000000 0.50000000
0.50000000 0.00000000 0.50000000
0.50000000 0.50000000 0.00000000
B N
1 1
Selective dynamics
Direct
0.00000000 0.00000000 0.00000000 T T F
0.25000000 0.25000000 0.25000000 F F F
Cartesian
0.01000000 0.01000000 0.01000000
0.00000000 0.00000000 0.00000000
optionally predictor-corrector coordinates
